p edge 98 2403
e 3 1
e 3 2
e 4 1
e 4 2
e 4 3
e 5 2
e 5 3
e 6 1
e 6 3
e 6 4
e 6 5
e 7 1
e 7 3
e 7 6
e 8 2
e 8 3
e 8 4
e 8 5
e 8 6
e 8 7
e 9 1
e 9 2
e 9 4
e 9 5
e 9 6
e 10 2
e 10 3
e 10 6
e 10 9
e 11 2
e 11 5
e 11 6
e 11 7
e 11 8
e 11 10
e 12 1
e 12 2
e 12 4
e 12 11
e 13 1
e 13 2
e 13 3
e 13 4
e 13 6
e 13 7
e 13 12
e 14 1
e 14 5
e 14 8
e 14 12
e 14 13
e 15 2
e 15 6
e 15 7
e 15 13
e 15 14
e 16 1
e 16 2
e 16 3
e 16 5
e 16 6
e 16 8
e 16 9
e 16 10
e 16 12
e 16 15
e 17 2
e 17 3
e 17 4
e 17 7
e 17 16
e 18 1
e 18 3
e 18 5
e 18 7
e 18 9
e 18 10
e 18 15
e 18 16
e 18 17
e 19 1
e 19 2
e 19 4
e 19 8
e 19 9
e 19 10
e 19 11
e 19 14
e 19 15
e 19 17
e 19 18
e 20 1
e 20 3
e 20 4
e 20 10
e 20 11
e 20 13
e 20 14
e 20 17
e 20 18
e 21 1
e 21 2
e 21 3
e 21 4
e 21 5
e 21 6
e 21 9
e 21 10
e 21 12
e 21 15
e 21 16
e 21 18
e 21 19
e 21 20
e 22 1
e 22 3
e 22 4
e 22 5
e 22 6
e 22 7
e 22 9
e 22 11
e 22 12
e 22 13
e 22 16
e 22 17
e 22 18
e 23 5
e 23 6
e 23 10
e 23 15
e 23 17
e 23 18
e 23 19
e 23 20
e 23 22
e 24 2
e 24 4
e 24 6
e 24 7
e 24 9
e 24 11
e 24 13
e 24 17
e 24 18
e 24 19
e 24 21
e 24 22
e 25 3
e 25 6
e 25 9
e 25 14
e 25 17
e 25 18
e 25 20
e 25 21
e 25 23
e 25 24
e 26 7
e 26 9
e 26 10
e 26 11
e 26 12
e 26 20
e 26 21
e 26 22
e 26 23
e 26 24
e 27 2
e 27 3
e 27 4
e 27 7
e 27 8
e 27 10
e 27 11
e 27 14
e 27 15
e 27 16
e 27 17
e 27 19
e 27 21
e 27 22
e 27 23
e 27 24
e 28 1
e 28 2
e 28 3
e 28 4
e 28 5
e 28 6
e 28 7
e 28 8
e 28 10
e 28 12
e 28 14
e 28 16
e 28 17
e 28 18
e 28 20
e 28 21
e 28 22
e 28 25
e 28 26
e 29 1
e 29 3
e 29 5
e 29 7
e 29 8
e 29 9
e 29 10
e 29 13
e 29 15
e 29 16
e 29 18
e 29 25
e 29 26
e 29 27
e 29 28
e 30 1
e 30 4
e 30 7
e 30 9
e 30 10
e 30 12
e 30 13
e 30 14
e 30 16
e 30 24
e 30 28
e 31 2
e 31 3
e 31 5
e 31 7
e 31 8
e 31 11
e 31 12
e 31 13
e 31 15
e 31 18
e 31 23
e 31 24
e 31 26
e 31 27
e 31 29
e 32 3
e 32 5
e 32 7
e 32 11
e 32 12
e 32 13
e 32 16
e 32 17
e 32 18
e 32 19
e 32 21
e 32 22
e 32 26
e 32 29
e 32 30
e 32 31
e 33 1
e 33 2
e 33 5
e 33 6
e 33 7
e 33 11
e 33 12
e 33 15
e 33 18
e 33 20
e 33 21
e 33 22
e 33 24
e 33 26
e 33 29
e 33 30
e 33 32
e 34 1
e 34 2
e 34 3
e 34 4
e 34 7
e 34 8
e 34 13
e 34 14
e 34 16
e 34 17
e 34 19
e 34 23
e 34 24
e 34 28
e 34 30
e 34 31
e 34 32
e 35 2
e 35 6
e 35 7
e 35 11
e 35 12
e 35 15
e 35 20
e 35 22
e 35 23
e 35 26
e 35 27
e 35 28
e 35 29
e 35 31
e 35 33
e 36 2
e 36 4
e 36 7
e 36 8
e 36 9
e 36 12
e 36 13
e 36 15
e 36 18
e 36 19
e 36 20
e 36 23
e 36 25
e 36 26
e 36 29
e 36 30
e 37 8
e 37 9
e 37 10
e 37 11
e 37 13
e 37 20
e 37 21
e 37 24
e 37 26
e 37 28
e 37 29
e 37 30
e 37 32
e 37 33
e 37 34
e 37 36
e 38 4
e 38 5
e 38 6
e 38 8
e 38 10
e 38 11
e 38 14
e 38 15
e 38 21
e 38 26
e 38 27
e 38 31
e 38 33
e 38 35
e 39 2
e 39 3
e 39 6
e 39 8
e 39 10
e 39 11
e 39 12
e 39 13
e 39 21
e 39 22
e 39 23
e 39 26
e 39 28
e 39 29
e 39 30
e 39 31
e 39 32
e 39 34
e 39 35
e 39 38
e 40 2
e 40 4
e 40 5
e 40 6
e 40 9
e 40 10
e 40 11
e 40 13
e 40 14
e 40 15
e 40 16
e 40 17
e 40 18
e 40 19
e 40 20
e 40 27
e 40 28
e 40 29
e 40 30
e 40 31
e 40 32
e 40 33
e 40 34
e 40 37
e 40 38
e 41 1
e 41 2
e 41 7
e 41 9
e 41 12
e 41 13
e 41 16
e 41 18
e 41 19
e 41 20
e 41 21
e 41 25
e 41 26
e 41 27
e 41 29
e 41 31
e 41 33
e 41 34
e 41 36
e 41 37
e 41 38
e 42 6
e 42 8
e 42 10
e 42 12
e 42 13
e 42 14
e 42 15
e 42 16
e 42 17
e 42 18
e 42 19
e 42 23
e 42 25
e 42 26
e 42 30
e 42 31
e 42 32
e 42 35
e 42 37
e 42 38
e 42 40
e 42 41
e 43 1
e 43 3
e 43 5
e 43 8
e 43 9
e 43 10
e 43 11
e 43 12
e 43 13
e 43 15
e 43 17
e 43 18
e 43 22
e 43 23
e 43 24
e 43 26
e 43 28
e 43 30
e 43 31
e 43 32
e 43 36
e 43 37
e 43 38
e 43 39
e 43 40
e 43 41
e 44 2
e 44 4
e 44 6
e 44 8
e 44 9
e 44 10
e 44 12
e 44 13
e 44 14
e 44 15
e 44 18
e 44 20
e 44 21
e 44 23
e 44 26
e 44 28
e 44 29
e 44 30
e 44 34
e 44 38
e 44 41
e 44 43
e 45 2
e 45 7
e 45 8
e 45 9
e 45 10
e 45 12
e 45 14
e 45 18
e 45 21
e 45 26
e 45 28
e 45 30
e 45 31
e 45 35
e 45 36
e 45 41
e 45 42
e 45 43
e 45 44
e 46 5
e 46 7
e 46 8
e 46 9
e 46 14
e 46 15
e 46 16
e 46 17
e 46 19
e 46 21
e 46 23
e 46 30
e 46 33
e 46 36
e 46 39
e 46 40
e 46 41
e 46 43
e 46 44
e 47 2
e 47 3
e 47 4
e 47 5
e 47 13
e 47 14
e 47 15
e 47 17
e 47 20
e 47 21
e 47 23
e 47 24
e 47 29
e 47 30
e 47 31
e 47 33
e 47 35
e 47 36
e 47 37
e 47 38
e 47 39
e 47 41
e 47 43
e 47 45
e 47 46
e 48 1
e 48 2
e 48 4
e 48 5
e 48 9
e 48 10
e 48 12
e 48 14
e 48 15
e 48 17
e 48 18
e 48 19
e 48 20
e 48 22
e 48 23
e 48 26
e 48 30
e 48 31
e 48 33
e 48 35
e 48 38
e 48 39
e 48 40
e 48 47
e 49 2
e 49 3
e 49 4
e 49 9
e 49 10
e 49 12
e 49 13
e 49 15
e 49 18
e 49 19
e 49 22
e 49 23
e 49 24
e 49 27
e 49 28
e 49 30
e 49 35
e 49 38
e 49 42
e 49 44
e 49 46
e 49 47
e 49 48
e 50 2
e 50 3
e 50 4
e 50 5
e 50 7
e 50 9
e 50 14
e 50 18
e 50 20
e 50 21
e 50 23
e 50 24
e 50 25
e 50 27
e 50 29
e 50 32
e 50 35
e 50 38
e 50 40
e 50 41
e 50 42
e 50 43
e 50 44
e 50 45
e 50 46
e 50 47
e 51 1
e 51 2
e 51 7
e 51 14
e 51 15
e 51 16
e 51 19
e 51 21
e 51 22
e 51 25
e 51 28
e 51 29
e 51 30
e 51 31
e 51 36
e 51 38
e 51 41
e 51 43
e 51 46
e 51 47
e 52 1
e 52 3
e 52 4
e 52 7
e 52 8
e 52 9
e 52 11
e 52 12
e 52 13
e 52 16
e 52 17
e 52 19
e 52 21
e 52 23
e 52 25
e 52 27
e 52 31
e 52 32
e 52 33
e 52 34
e 52 36
e 52 37
e 52 39
e 52 40
e 52 41
e 52 44
e 52 45
e 52 47
e 52 49
e 52 50
e 52 51
e 53 4
e 53 10
e 53 15
e 53 17
e 53 18
e 53 20
e 53 21
e 53 24
e 53 25
e 53 29
e 53 30
e 53 32
e 53 33
e 53 38
e 53 40
e 53 41
e 53 44
e 53 46
e 53 48
e 53 49
e 53 50
e 53 51
e 54 1
e 54 3
e 54 4
e 54 7
e 54 8
e 54 9
e 54 10
e 54 11
e 54 13
e 54 14
e 54 18
e 54 20
e 54 21
e 54 24
e 54 26
e 54 28
e 54 31
e 54 32
e 54 33
e 54 35
e 54 38
e 54 41
e 54 46
e 54 49
e 54 50
e 54 52
e 54 53
e 55 2
e 55 4
e 55 11
e 55 14
e 55 15
e 55 16
e 55 19
e 55 20
e 55 21
e 55 22
e 55 25
e 55 27
e 55 30
e 55 31
e 55 34
e 55 35
e 55 39
e 55 40
e 55 46
e 55 47
e 55 48
e 55 50
e 55 51
e 55 54
e 56 1
e 56 2
e 56 5
e 56 10
e 56 11
e 56 12
e 56 14
e 56 16
e 56 18
e 56 20
e 56 22
e 56 23
e 56 24
e 56 25
e 56 27
e 56 28
e 56 29
e 56 30
e 56 33
e 56 34
e 56 37
e 56 38
e 56 40
e 56 42
e 56 43
e 56 44
e 57 3
e 57 4
e 57 8
e 57 9
e 57 10
e 57 16
e 57 17
e 57 18
e 57 20
e 57 23
e 57 26
e 57 27
e 57 28
e 57 33
e 57 34
e 57 35
e 57 37
e 57 39
e 57 42
e 57 43
e 57 44
e 57 45
e 57 48
e 57 50
e 57 51
e 57 52
e 57 53
e 57 54
e 57 55
e 58 2
e 58 3
e 58 4
e 58 5
e 58 6
e 58 8
e 58 9
e 58 10
e 58 11
e 58 16
e 58 17
e 58 20
e 58 21
e 58 22
e 58 24
e 58 26
e 58 28
e 58 29
e 58 30
e 58 33
e 58 34
e 58 36
e 58 38
e 58 39
e 58 41
e 58 43
e 58 45
e 58 47
e 58 48
e 58 50
e 58 51
e 58 53
e 58 57
e 59 3
e 59 5
e 59 6
e 59 11
e 59 13
e 59 16
e 59 17
e 59 19
e 59 20
e 59 23
e 59 26
e 59 27
e 59 28
e 59 32
e 59 33
e 59 34
e 59 35
e 59 36
e 59 37
e 59 41
e 59 46
e 59 48
e 59 51
e 59 53
e 59 55
e 60 2
e 60 3
e 60 4
e 60 5
e 60 7
e 60 12
e 60 14
e 60 16
e 60 19
e 60 21
e 60 23
e 60 24
e 60 25
e 60 28
e 60 30
e 60 31
e 60 33
e 60 38
e 60 40
e 60 41
e 60 43
e 60 44
e 60 46
e 60 47
e 60 48
e 60 49
e 60 50
e 60 52
e 60 54
e 60 55
e 60 57
e 60 58
e 60 59
e 61 7
e 61 8
e 61 9
e 61 10
e 61 12
e 61 13
e 61 14
e 61 16
e 61 17
e 61 19
e 61 20
e 61 21
e 61 28
e 61 30
e 61 31
e 61 33
e 61 34
e 61 37
e 61 39
e 61 40
e 61 43
e 61 44
e 61 45
e 61 48
e 61 49
e 61 50
e 61 51
e 61 54
e 61 56
e 61 57
e 61 59
e 61 60
e 62 2
e 62 5
e 62 6
e 62 7
e 62 13
e 62 15
e 62 20
e 62 21
e 62 23
e 62 27
e 62 28
e 62 29
e 62 33
e 62 35
e 62 36
e 62 38
e 62 40
e 62 41
e 62 42
e 62 43
e 62 45
e 62 52
e 62 53
e 62 55
e 62 59
e 62 60
e 63 2
e 63 5
e 63 9
e 63 10
e 63 11
e 63 15
e 63 16
e 63 17
e 63 18
e 63 22
e 63 23
e 63 25
e 63 26
e 63 27
e 63 31
e 63 33
e 63 34
e 63 35
e 63 36
e 63 38
e 63 40
e 63 43
e 63 44
e 63 45
e 63 47
e 63 48
e 63 51
e 63 52
e 63 54
e 63 56
e 63 58
e 63 59
e 63 60
e 63 61
e 63 62
e 64 1
e 64 2
e 64 3
e 64 4
e 64 7
e 64 10
e 64 15
e 64 16
e 64 17
e 64 18
e 64 21
e 64 23
e 64 24
e 64 25
e 64 26
e 64 28
e 64 29
e 64 30
e 64 32
e 64 33
e 64 35
e 64 36
e 64 37
e 64 39
e 64 40
e 64 45
e 64 46
e 64 54
e 64 56
e 64 57
e 64 61
e 64 63
e 65 4
e 65 6
e 65 7
e 65 8
e 65 9
e 65 10
e 65 11
e 65 13
e 65 15
e 65 17
e 65 18
e 65 21
e 65 23
e 65 24
e 65 25
e 65 26
e 65 27
e 65 30
e 65 31
e 65 33
e 65 42
e 65 43
e 65 44
e 65 46
e 65 47
e 65 49
e 65 51
e 65 52
e 65 54
e 65 55
e 65 57
e 65 58
e 65 59
e 65 60
e 65 63
e 66 1
e 66 2
e 66 7
e 66 8
e 66 9
e 66 11
e 66 12
e 66 13
e 66 16
e 66 19
e 66 21
e 66 22
e 66 23
e 66 24
e 66 27
e 66 28
e 66 29
e 66 30
e 66 33
e 66 34
e 66 36
e 66 37
e 66 38
e 66 39
e 66 40
e 66 41
e 66 42
e 66 44
e 66 45
e 66 47
e 66 51
e 66 53
e 66 54
e 66 55
e 66 57
e 66 58
e 66 59
e 66 60
e 66 61
e 66 62
e 66 64
e 67 1
e 67 2
e 67 3
e 67 4
e 67 8
e 67 10
e 67 11
e 67 13
e 67 14
e 67 15
e 67 16
e 67 20
e 67 21
e 67 23
e 67 25
e 67 26
e 67 29
e 67 31
e 67 38
e 67 40
e 67 42
e 67 43
e 67 44
e 67 45
e 67 46
e 67 48
e 67 49
e 67 50
e 67 51
e 67 52
e 67 54
e 67 55
e 67 57
e 67 58
e 67 59
e 67 61
e 67 62
e 67 64
e 67 66
e 68 1
e 68 4
e 68 5
e 68 7
e 68 9
e 68 11
e 68 14
e 68 16
e 68 17
e 68 19
e 68 23
e 68 24
e 68 25
e 68 26
e 68 27
e 68 29
e 68 32
e 68 36
e 68 38
e 68 39
e 68 42
e 68 43
e 68 45
e 68 47
e 68 48
e 68 51
e 68 54
e 68 56
e 68 57
e 68 58
e 68 60
e 68 62
e 68 65
e 68 67
e 69 3
e 69 9
e 69 11
e 69 12
e 69 13
e 69 14
e 69 15
e 69 16
e 69 17
e 69 18
e 69 19
e 69 20
e 69 22
e 69 24
e 69 25
e 69 27
e 69 31
e 69 32
e 69 34
e 69 37
e 69 38
e 69 39
e 69 40
e 69 44
e 69 46
e 69 47
e 69 49
e 69 55
e 69 56
e 69 57
e 69 58
e 69 59
e 69 60
e 69 61
e 69 64
e 69 66
e 69 67
e 70 1
e 70 2
e 70 3
e 70 4
e 70 5
e 70 6
e 70 10
e 70 11
e 70 12
e 70 15
e 70 17
e 70 18
e 70 20
e 70 22
e 70 32
e 70 33
e 70 34
e 70 35
e 70 38
e 70 39
e 70 40
e 70 42
e 70 43
e 70 44
e 70 51
e 70 54
e 70 59
e 70 60
e 70 61
e 70 62
e 70 67
e 70 68
e 70 69
e 71 5
e 71 6
e 71 9
e 71 12
e 71 14
e 71 17
e 71 18
e 71 19
e 71 20
e 71 21
e 71 23
e 71 24
e 71 27
e 71 29
e 71 30
e 71 32
e 71 33
e 71 34
e 71 35
e 71 36
e 71 40
e 71 43
e 71 46
e 71 50
e 71 53
e 71 54
e 71 55
e 71 56
e 71 59
e 71 60
e 71 61
e 71 64
e 71 65
e 71 66
e 71 69
e 71 70
e 72 4
e 72 5
e 72 6
e 72 7
e 72 8
e 72 9
e 72 11
e 72 13
e 72 14
e 72 16
e 72 22
e 72 23
e 72 29
e 72 33
e 72 35
e 72 36
e 72 37
e 72 40
e 72 45
e 72 46
e 72 47
e 72 48
e 72 49
e 72 51
e 72 52
e 72 53
e 72 54
e 72 55
e 72 57
e 72 58
e 72 59
e 72 62
e 72 63
e 72 64
e 72 65
e 72 68
e 72 69
e 72 70
e 73 2
e 73 4
e 73 6
e 73 7
e 73 9
e 73 10
e 73 11
e 73 12
e 73 13
e 73 15
e 73 17
e 73 19
e 73 22
e 73 23
e 73 25
e 73 26
e 73 29
e 73 30
e 73 32
e 73 34
e 73 40
e 73 41
e 73 46
e 73 47
e 73 52
e 73 53
e 73 54
e 73 55
e 73 56
e 73 59
e 73 60
e 73 61
e 73 62
e 73 63
e 73 65
e 73 66
e 73 67
e 73 71
e 74 1
e 74 2
e 74 3
e 74 5
e 74 8
e 74 9
e 74 10
e 74 13
e 74 14
e 74 17
e 74 20
e 74 21
e 74 22
e 74 23
e 74 29
e 74 30
e 74 31
e 74 32
e 74 33
e 74 39
e 74 40
e 74 47
e 74 48
e 74 49
e 74 50
e 74 51
e 74 52
e 74 53
e 74 57
e 74 59
e 74 61
e 74 63
e 74 64
e 74 66
e 74 68
e 74 69
e 74 70
e 74 71
e 75 1
e 75 3
e 75 4
e 75 5
e 75 6
e 75 7
e 75 9
e 75 12
e 75 13
e 75 14
e 75 15
e 75 16
e 75 18
e 75 21
e 75 23
e 75 25
e 75 28
e 75 29
e 75 30
e 75 33
e 75 38
e 75 40
e 75 41
e 75 42
e 75 45
e 75 47
e 75 48
e 75 49
e 75 55
e 75 56
e 75 58
e 75 59
e 75 60
e 75 62
e 75 64
e 75 66
e 75 67
e 75 69
e 75 74
e 76 1
e 76 2
e 76 4
e 76 6
e 76 7
e 76 10
e 76 11
e 76 15
e 76 16
e 76 20
e 76 22
e 76 24
e 76 25
e 76 28
e 76 29
e 76 30
e 76 33
e 76 34
e 76 35
e 76 38
e 76 39
e 76 41
e 76 42
e 76 44
e 76 46
e 76 48
e 76 50
e 76 51
e 76 52
e 76 53
e 76 55
e 76 56
e 76 57
e 76 58
e 76 63
e 76 64
e 76 65
e 76 67
e 76 69
e 76 75
e 77 2
e 77 4
e 77 5
e 77 9
e 77 12
e 77 13
e 77 15
e 77 17
e 77 18
e 77 21
e 77 22
e 77 23
e 77 25
e 77 28
e 77 29
e 77 30
e 77 34
e 77 37
e 77 38
e 77 40
e 77 42
e 77 43
e 77 48
e 77 49
e 77 50
e 77 54
e 77 56
e 77 57
e 77 58
e 77 59
e 77 60
e 77 62
e 77 64
e 77 65
e 77 66
e 77 67
e 77 68
e 77 69
e 77 71
e 77 72
e 77 76
e 78 1
e 78 4
e 78 5
e 78 9
e 78 11
e 78 13
e 78 14
e 78 17
e 78 19
e 78 20
e 78 22
e 78 23
e 78 24
e 78 27
e 78 29
e 78 30
e 78 34
e 78 36
e 78 37
e 78 40
e 78 41
e 78 42
e 78 43
e 78 46
e 78 49
e 78 52
e 78 55
e 78 56
e 78 57
e 78 59
e 78 60
e 78 61
e 78 62
e 78 64
e 78 65
e 78 67
e 78 68
e 78 69
e 78 70
e 78 72
e 78 73
e 78 75
e 79 2
e 79 6
e 79 7
e 79 8
e 79 10
e 79 12
e 79 13
e 79 14
e 79 15
e 79 19
e 79 23
e 79 24
e 79 26
e 79 27
e 79 30
e 79 35
e 79 37
e 79 38
e 79 39
e 79 40
e 79 47
e 79 48
e 79 49
e 79 50
e 79 52
e 79 53
e 79 56
e 79 59
e 79 61
e 79 62
e 79 64
e 79 65
e 79 67
e 79 69
e 79 76
e 80 1
e 80 3
e 80 5
e 80 6
e 80 7
e 80 11
e 80 12
e 80 15
e 80 16
e 80 19
e 80 20
e 80 26
e 80 27
e 80 33
e 80 34
e 80 36
e 80 40
e 80 41
e 80 42
e 80 50
e 80 51
e 80 52
e 80 57
e 80 60
e 80 61
e 80 71
e 80 76
e 80 77
e 80 78
e 81 2
e 81 3
e 81 10
e 81 11
e 81 13
e 81 14
e 81 15
e 81 16
e 81 18
e 81 19
e 81 23
e 81 27
e 81 28
e 81 29
e 81 30
e 81 31
e 81 35
e 81 38
e 81 39
e 81 40
e 81 41
e 81 44
e 81 45
e 81 46
e 81 48
e 81 50
e 81 53
e 81 54
e 81 55
e 81 56
e 81 58
e 81 60
e 81 62
e 81 65
e 81 67
e 81 68
e 81 75
e 81 79
e 81 80
e 82 4
e 82 6
e 82 9
e 82 10
e 82 12
e 82 14
e 82 17
e 82 18
e 82 20
e 82 21
e 82 24
e 82 27
e 82 29
e 82 30
e 82 32
e 82 33
e 82 38
e 82 39
e 82 40
e 82 41
e 82 42
e 82 43
e 82 48
e 82 51
e 82 52
e 82 53
e 82 54
e 82 55
e 82 58
e 82 61
e 82 63
e 82 64
e 82 67
e 82 68
e 82 70
e 82 71
e 82 72
e 82 74
e 82 76
e 82 77
e 82 78
e 82 79
e 82 80
e 83 4
e 83 5
e 83 7
e 83 11
e 83 12
e 83 13
e 83 14
e 83 16
e 83 17
e 83 19
e 83 20
e 83 22
e 83 23
e 83 27
e 83 29
e 83 30
e 83 31
e 83 33
e 83 35
e 83 36
e 83 37
e 83 41
e 83 42
e 83 43
e 83 44
e 83 47
e 83 51
e 83 52
e 83 54
e 83 56
e 83 59
e 83 60
e 83 64
e 83 69
e 83 71
e 83 73
e 83 80
e 83 81
e 83 82
e 84 1
e 84 3
e 84 5
e 84 8
e 84 10
e 84 13
e 84 15
e 84 18
e 84 19
e 84 20
e 84 21
e 84 27
e 84 29
e 84 30
e 84 33
e 84 34
e 84 35
e 84 38
e 84 39
e 84 40
e 84 41
e 84 42
e 84 48
e 84 54
e 84 55
e 84 57
e 84 62
e 84 63
e 84 64
e 84 67
e 84 70
e 84 71
e 84 72
e 84 75
e 84 78
e 84 79
e 84 80
e 84 82
e 84 83
e 85 3
e 85 5
e 85 6
e 85 7
e 85 10
e 85 12
e 85 13
e 85 14
e 85 16
e 85 17
e 85 19
e 85 20
e 85 21
e 85 23
e 85 24
e 85 25
e 85 26
e 85 28
e 85 29
e 85 31
e 85 33
e 85 38
e 85 39
e 85 43
e 85 44
e 85 45
e 85 49
e 85 50
e 85 51
e 85 52
e 85 53
e 85 55
e 85 56
e 85 57
e 85 59
e 85 61
e 85 63
e 85 64
e 85 65
e 85 70
e 85 74
e 85 76
e 85 80
e 85 84
e 86 1
e 86 4
e 86 5
e 86 6
e 86 7
e 86 9
e 86 10
e 86 13
e 86 15
e 86 16
e 86 17
e 86 18
e 86 23
e 86 24
e 86 28
e 86 30
e 86 33
e 86 37
e 86 38
e 86 39
e 86 40
e 86 41
e 86 42
e 86 44
e 86 47
e 86 48
e 86 50
e 86 52
e 86 59
e 86 61
e 86 64
e 86 69
e 86 70
e 86 71
e 86 72
e 86 77
e 86 78
e 86 79
e 86 80
e 86 82
e 86 83
e 87 2
e 87 3
e 87 6
e 87 8
e 87 10
e 87 11
e 87 15
e 87 21
e 87 23
e 87 25
e 87 26
e 87 28
e 87 30
e 87 31
e 87 34
e 87 37
e 87 38
e 87 39
e 87 42
e 87 43
e 87 48
e 87 51
e 87 56
e 87 58
e 87 59
e 87 60
e 87 63
e 87 64
e 87 65
e 87 66
e 87 70
e 87 71
e 87 74
e 87 75
e 87 79
e 87 83
e 87 86
e 88 1
e 88 3
e 88 6
e 88 8
e 88 10
e 88 14
e 88 15
e 88 16
e 88 17
e 88 24
e 88 29
e 88 30
e 88 31
e 88 33
e 88 34
e 88 36
e 88 39
e 88 41
e 88 42
e 88 47
e 88 49
e 88 50
e 88 52
e 88 53
e 88 55
e 88 57
e 88 59
e 88 60
e 88 62
e 88 63
e 88 64
e 88 65
e 88 67
e 88 71
e 88 75
e 88 76
e 88 77
e 88 78
e 88 79
e 88 83
e 88 84
e 88 85
e 88 86
e 88 87
e 89 1
e 89 5
e 89 9
e 89 12
e 89 14
e 89 16
e 89 18
e 89 19
e 89 20
e 89 21
e 89 22
e 89 23
e 89 25
e 89 29
e 89 31
e 89 33
e 89 34
e 89 35
e 89 36
e 89 37
e 89 38
e 89 39
e 89 41
e 89 42
e 89 43
e 89 44
e 89 51
e 89 52
e 89 53
e 89 54
e 89 56
e 89 57
e 89 60
e 89 63
e 89 65
e 89 67
e 89 70
e 89 74
e 89 76
e 89 78
e 89 80
e 89 85
e 89 87
e 89 88
e 90 3
e 90 4
e 90 6
e 90 7
e 90 8
e 90 10
e 90 12
e 90 13
e 90 16
e 90 18
e 90 19
e 90 21
e 90 22
e 90 23
e 90 25
e 90 30
e 90 31
e 90 32
e 90 33
e 90 37
e 90 41
e 90 42
e 90 43
e 90 44
e 90 48
e 90 50
e 90 52
e 90 55
e 90 56
e 90 57
e 90 59
e 90 65
e 90 66
e 90 68
e 90 69
e 90 72
e 90 75
e 90 78
e 90 79
e 90 82
e 90 86
e 90 87
e 90 89
e 91 1
e 91 2
e 91 6
e 91 7
e 91 14
e 91 24
e 91 25
e 91 28
e 91 29
e 91 30
e 91 31
e 91 32
e 91 33
e 91 34
e 91 36
e 91 38
e 91 41
e 91 42
e 91 44
e 91 48
e 91 54
e 91 55
e 91 56
e 91 58
e 91 60
e 91 61
e 91 62
e 91 63
e 91 64
e 91 65
e 91 67
e 91 68
e 91 69
e 91 71
e 91 75
e 91 77
e 91 78
e 91 79
e 91 80
e 91 81
e 91 82
e 91 83
e 91 84
e 91 85
e 91 86
e 91 89
e 92 1
e 92 4
e 92 8
e 92 10
e 92 13
e 92 14
e 92 15
e 92 18
e 92 20
e 92 22
e 92 23
e 92 25
e 92 26
e 92 28
e 92 33
e 92 34
e 92 37
e 92 38
e 92 39
e 92 40
e 92 41
e 92 47
e 92 49
e 92 50
e 92 51
e 92 53
e 92 54
e 92 57
e 92 58
e 92 61
e 92 62
e 92 69
e 92 70
e 92 72
e 92 74
e 92 75
e 92 77
e 92 78
e 92 82
e 92 83
e 92 84
e 92 86
e 92 87
e 92 89
e 92 91
e 93 3
e 93 4
e 93 6
e 93 11
e 93 12
e 93 14
e 93 15
e 93 18
e 93 19
e 93 21
e 93 23
e 93 25
e 93 27
e 93 29
e 93 30
e 93 37
e 93 38
e 93 39
e 93 40
e 93 43
e 93 44
e 93 45
e 93 46
e 93 47
e 93 52
e 93 53
e 93 54
e 93 56
e 93 58
e 93 59
e 93 60
e 93 63
e 93 64
e 93 67
e 93 68
e 93 70
e 93 72
e 93 78
e 93 79
e 93 81
e 93 82
e 93 83
e 93 87
e 93 89
e 93 91
e 93 92
e 94 3
e 94 6
e 94 7
e 94 8
e 94 9
e 94 11
e 94 12
e 94 14
e 94 16
e 94 17
e 94 19
e 94 21
e 94 23
e 94 25
e 94 27
e 94 28
e 94 32
e 94 34
e 94 35
e 94 36
e 94 38
e 94 40
e 94 41
e 94 45
e 94 46
e 94 48
e 94 49
e 94 53
e 94 55
e 94 58
e 94 59
e 94 64
e 94 66
e 94 67
e 94 69
e 94 70
e 94 72
e 94 78
e 94 79
e 94 80
e 94 83
e 94 84
e 94 86
e 94 91
e 94 92
e 95 3
e 95 4
e 95 5
e 95 6
e 95 7
e 95 8
e 95 9
e 95 10
e 95 16
e 95 18
e 95 19
e 95 21
e 95 22
e 95 23
e 95 24
e 95 25
e 95 26
e 95 29
e 95 30
e 95 35
e 95 38
e 95 40
e 95 41
e 95 49
e 95 51
e 95 54
e 95 55
e 95 56
e 95 67
e 95 70
e 95 72
e 95 74
e 95 75
e 95 76
e 95 77
e 95 82
e 95 84
e 95 85
e 95 87
e 95 88
e 95 90
e 95 92
e 95 94
e 96 2
e 96 3
e 96 6
e 96 7
e 96 9
e 96 10
e 96 11
e 96 12
e 96 15
e 96 16
e 96 17
e 96 18
e 96 19
e 96 21
e 96 23
e 96 24
e 96 25
e 96 26
e 96 27
e 96 29
e 96 30
e 96 32
e 96 34
e 96 36
e 96 39
e 96 40
e 96 42
e 96 43
e 96 45
e 96 47
e 96 48
e 96 49
e 96 50
e 96 52
e 96 53
e 96 54
e 96 58
e 96 60
e 96 61
e 96 63
e 96 65
e 96 66
e 96 67
e 96 69
e 96 71
e 96 72
e 96 77
e 96 80
e 96 81
e 96 85
e 96 88
e 96 89
e 96 92
e 96 93
e 96 94
e 96 95
e 97 6
e 97 7
e 97 9
e 97 10
e 97 11
e 97 14
e 97 15
e 97 16
e 97 24
e 97 25
e 97 27
e 97 28
e 97 29
e 97 30
e 97 32
e 97 34
e 97 36
e 97 41
e 97 42
e 97 43
e 97 47
e 97 48
e 97 52
e 97 54
e 97 57
e 97 59
e 97 63
e 97 67
e 97 69
e 97 73
e 97 74
e 97 77
e 97 78
e 97 80
e 97 81
e 97 82
e 97 83
e 97 84
e 97 85
e 97 86
e 97 87
e 97 90
e 97 91
e 97 92
e 97 93
e 97 95
e 98 1
e 98 3
e 98 4
e 98 5
e 98 8
e 98 9
e 98 11
e 98 13
e 98 15
e 98 18
e 98 20
e 98 23
e 98 25
e 98 26
e 98 27
e 98 28
e 98 30
e 98 32
e 98 33
e 98 36
e 98 38
e 98 42
e 98 43
e 98 47
e 98 51
e 98 54
e 98 56
e 98 57
e 98 58
e 98 59
e 98 60
e 98 62
e 98 64
e 98 66
e 98 67
e 98 68
e 98 70
e 98 75
e 98 76
e 98 81
e 98 85
e 98 88
e 98 89
e 98 91
e 98 94
e 98 95
